% number of games is 100
num = 100;
cap = 5;
refill = 2;
fun = [9, 9, -1, 9, -5, 13, 9, -2, -11, -8, 3, -18, -10, -9, 6, 3, -5, -17, 20, 14, -3, -12, 15, -2, -8, -15, 2, -4, 20, 2, 2, 6, -20, -14, -8, -9, -15, 19, -4, -1, -5, -18, 10, 6, -2, 0, -10, 1, -14, 13, 0, 18, -14, -1, -8, -16, -7, -2, -7, 17, -9, -6, 20, -11, -12, -3, 8, 5, -12, -18, -6, 8, -2, 17, 0, -16, -6, 7, 12, -13, 12, -13, -13, 1, -19, 8, 5, 20, -17, -2, -18, 13, 5, 20, 10, -20, 10, -5, 0, 3];
